1 100 722
4 2 3 7 2 4 0 2 3 2
2
9 9
0 35.0 35.0 0.0 0.0 0 230
2 41.0 49.0 10.0 10.0 15 204 52 1 0 0 1 0 0 0 1 0 0
3 35.0 17.0 10.0 7.0 18 202 43 0 0 0 0 0 1 1 1 0 0
4 55.0 45.0 10.0 13.0 54 187 59 1 0 0 0 1 1 0 0 0 0
5 55.0 20.0 10.0 19.0 138 169 7 0 0 0 0 1 0 0 0 0 0
6 15.0 30.0 10.0 26.0 20 199 29 0 0 1 1 0 0 0 1 0 0
7 25.0 30.0 10.0 3.0 76 131 11 0 0 1 0 0 0 0 0 1 1
8 20.0 50.0 10.0 5.0 21 170 12 0 0 0 1 0 0 1 0 0 0
9 10.0 43.0 10.0 9.0 87 112 58 1 1 0 0 1 0 1 1 0 0
10 55.0 60.0 10.0 16.0 88 115 54 0 0 0 1 0 0 0 1 1 0
11 30.0 60.0 10.0 16.0 107 150 84 0 0 0 1 0 0 0 0 1 0
12 20.0 65.0 10.0 12.0 57 86 46 1 0 0 0 0 0 0 0 0 0
13 50.0 35.0 10.0 19.0 15 192 25 0 1 1 0 1 1 0 0 0 0
14 30.0 25.0 10.0 23.0 147 180 93 0 0 0 0 0 1 0 0 0 0
15 15.0 10.0 10.0 20.0 32 187 87 0 0 1 0 1 1 0 0 0 1
16 30.0 5.0 10.0 8.0 50 81 0 0 0 0 1 0 0 0 0 1 0
17 10.0 20.0 10.0 19.0 29 139 80 0 0 0 0 0 0 0 0 0 1
18 5.0 30.0 10.0 2.0 124 189 56 0 0 0 0 1 1 0 0 0 1
19 20.0 40.0 10.0 12.0 47 136 37 0 0 0 0 1 0 0 0 0 0
20 15.0 60.0 10.0 17.0 32 146 19 0 0 1 1 0 0 1 0 0 0
21 45.0 65.0 10.0 9.0 79 182 57 0 0 0 0 1 0 0 0 1 0
22 45.0 20.0 10.0 11.0 18 195 90 0 1 0 0 0 0 0 0 0 1
23 45.0 10.0 10.0 18.0 76 127 77 0 0 0 1 0 0 0 0 0 0
24 55.0 5.0 10.0 29.0 58 87 82 0 0 0 0 0 1 0 0 0 0
25 65.0 35.0 10.0 3.0 58 190 71 0 0 1 0 0 1 0 0 0 0
26 65.0 20.0 10.0 6.0 153 186 51 1 0 0 0 0 0 0 0 0 0
27 45.0 30.0 10.0 17.0 58 208 74 0 0 0 0 0 1 0 0 0 0
28 35.0 40.0 10.0 16.0 8 75 91 0 1 0 1 0 0 0 0 1 0
29 41.0 37.0 10.0 16.0 6 136 11 0 0 1 0 0 0 0 0 0 0
30 64.0 42.0 10.0 9.0 29 150 38 0 0 0 0 1 0 0 0 0 1
31 40.0 60.0 10.0 21.0 49 102 23 0 0 0 0 0 0 0 1 1 0
32 31.0 52.0 10.0 27.0 17 198 81 1 0 0 1 0 0 0 0 0 0
33 35.0 69.0 10.0 23.0 67 186 72 0 1 0 0 0 0 1 0 0 1
34 53.0 52.0 10.0 11.0 24 92 97 1 0 0 0 0 1 0 0 0 0
35 65.0 55.0 10.0 14.0 36 183 41 1 0 0 0 0 0 0 0 0 0
36 63.0 65.0 10.0 8.0 116 178 17 0 0 0 0 1 0 0 0 1 0
37 2.0 60.0 10.0 5.0 41 112 18 0 0 0 0 1 0 0 0 1 1
38 20.0 20.0 10.0 8.0 42 198 67 0 1 0 0 1 0 0 0 0 0
39 5.0 5.0 10.0 16.0 74 101 57 0 0 0 0 0 1 1 1 0 0
40 60.0 12.0 10.0 31.0 33 110 76 0 0 0 0 1 0 1 1 0 1
41 40.0 25.0 10.0 9.0 65 114 94 0 0 1 0 0 1 0 0 0 0
42 42.0 7.0 10.0 5.0 72 131 91 0 0 0 0 0 0 0 1 0 0
43 24.0 12.0 10.0 5.0 25 91 23 0 0 1 0 0 0 0 0 0 1
44 23.0 3.0 10.0 7.0 82 185 47 0 0 0 0 0 0 1 0 0 1
45 11.0 14.0 10.0 18.0 59 88 52 0 0 0 0 0 0 1 0 0 1
46 6.0 38.0 10.0 16.0 29 99 38 0 0 0 0 0 1 0 0 1 0
47 2.0 48.0 10.0 1.0 63 180 35 0 0 0 0 0 0 1 1 0 0
48 8.0 56.0 10.0 27.0 34 176 6 0 0 0 0 0 0 0 0 0 1
49 13.0 52.0 10.0 36.0 27 192 81 1 0 0 1 0 1 0 1 0 1
50 6.0 68.0 10.0 30.0 93 132 74 1 0 0 1 0 0 0 0 0 1
51 47.0 47.0 10.0 13.0 41 203 0 0 1 0 0 0 0 0 1 1 0
52 49.0 58.0 10.0 10.0 36 149 23 1 1 0 0 0 1 0 1 0 1
53 27.0 43.0 10.0 9.0 11 195 99 0 0 0 0 0 1 0 0 0 0
54 37.0 31.0 10.0 14.0 87 112 26 1 0 1 0 0 0 0 0 0 1
55 57.0 29.0 10.0 18.0 90 197 26 0 0 0 0 0 0 0 0 1 1
56 63.0 23.0 10.0 2.0 126 155 66 0 0 1 1 0 1 1 1 0 0
57 53.0 12.0 10.0 6.0 106 163 48 0 0 1 0 1 0 1 0 0 0
58 32.0 12.0 10.0 7.0 48 163 98 1 0 0 0 1 0 0 0 1 1
59 36.0 26.0 10.0 18.0 178 210 29 1 0 0 0 0 0 1 0 0 0
60 21.0 24.0 10.0 28.0 17 202 22 0 0 0 1 1 1 0 0 0 0
61 17.0 34.0 10.0 3.0 70 201 72 0 0 0 0 1 1 0 0 0 0
62 12.0 24.0 10.0 13.0 29 132 37 0 0 0 0 0 1 0 0 0 0
63 24.0 58.0 10.0 19.0 46 79 41 0 1 0 1 0 0 0 0 0 0
64 27.0 69.0 10.0 10.0 34 172 47 0 0 0 0 0 1 0 0 0 0
65 15.0 77.0 10.0 9.0 48 107 76 0 0 0 0 0 1 0 0 0 1
66 62.0 77.0 10.0 20.0 49 113 90 1 0 0 0 0 0 0 0 0 0
67 49.0 73.0 10.0 25.0 104 159 88 1 0 0 0 1 0 0 1 0 0
68 67.0 5.0 10.0 25.0 73 102 16 1 1 0 1 0 0 0 0 0 0
69 56.0 39.0 10.0 36.0 117 176 84 1 0 1 0 0 0 0 0 0 1
70 37.0 47.0 10.0 6.0 39 70 39 0 0 1 0 0 0 0 0 0 0
71 37.0 56.0 10.0 5.0 123 198 79 0 0 0 0 0 1 0 0 1 0
72 57.0 68.0 10.0 15.0 39 148 33 0 0 1 0 0 0 0 0 0 0
73 47.0 16.0 10.0 25.0 22 197 20 1 0 1 1 0 0 0 1 0 0
74 44.0 17.0 10.0 9.0 30 135 49 0 1 0 0 0 0 0 0 1 0
75 46.0 13.0 10.0 8.0 138 169 42 0 0 0 0 0 0 0 0 1 0
76 49.0 11.0 10.0 18.0 27 192 61 0 0 1 0 1 0 1 0 0 0
77 49.0 42.0 10.0 13.0 65 90 11 0 0 1 0 0 0 0 0 0 0
78 53.0 43.0 10.0 14.0 168 199 16 0 0 0 1 0 0 1 0 0 0
79 61.0 52.0 10.0 3.0 71 130 67 1 0 0 0 0 1 1 0 0 1
80 57.0 48.0 10.0 23.0 84 109 49 0 0 0 1 1 0 0 1 0 0
81 56.0 37.0 10.0 6.0 135 198 45 0 0 1 0 0 0 0 0 0 1
82 55.0 54.0 10.0 26.0 57 140 60 0 0 0 0 0 1 0 0 0 0
83 15.0 47.0 10.0 16.0 23 196 74 0 0 0 1 0 0 0 0 0 0
84 14.0 37.0 10.0 11.0 21 198 64 0 0 0 0 0 1 0 0 0 0
85 11.0 31.0 10.0 7.0 93 118 31 0 1 0 0 1 0 0 0 0 1
86 16.0 22.0 10.0 41.0 23 177 38 0 1 0 0 0 0 0 0 1 1
87 4.0 18.0 10.0 35.0 49 148 74 0 0 0 0 0 0 0 1 0 0
88 28.0 18.0 10.0 26.0 88 107 48 0 0 0 0 0 1 0 0 0 0
89 26.0 52.0 10.0 9.0 50 107 33 0 0 0 0 0 0 0 1 0 0
90 26.0 35.0 10.0 15.0 68 211 80 1 0 1 0 0 0 0 0 1 0
91 31.0 67.0 10.0 3.0 46 153 16 0 1 0 0 0 0 0 0 0 0
92 15.0 19.0 10.0 1.0 25 194 4 1 0 0 0 1 0 0 0 0 0
93 22.0 22.0 10.0 2.0 18 53 72 0 0 1 0 1 0 0 0 1 1
94 18.0 24.0 10.0 22.0 129 199 12 0 0 0 0 0 1 0 0 0 0
95 26.0 27.0 10.0 27.0 35 174 41 1 0 1 0 0 1 0 0 0 0
96 25.0 24.0 10.0 20.0 14 205 80 0 0 0 1 1 0 0 0 0 0
97 22.0 27.0 10.0 11.0 51 204 81 0 0 0 0 0 0 0 0 1 1
98 25.0 21.0 10.0 12.0 92 183 60 0 0 0 0 0 1 0 0 0 0
99 19.0 21.0 10.0 10.0 21 198 62 0 0 0 1 0 1 1 0 0 0
100 20.0 26.0 10.0 9.0 74 101 78 0 0 0 0 1 0 0 1 1 0
101 18.0 18.0 10.0 17.0 159 195 63 0 1 0 0 1 1 1 0 0 0